NAME : graph1
COMMENT : H Algorithm Solution by Oscar Riveros [http://twitter.com/maxtuno]
TYPE : TOUR
DIMENSION : 66
TOUR_SECTION
28
44
10
16
52
19
11
45
38
22
60
27
65
53
48
33
43
26
64
66
13
51
2
17
37
29
31
7
58
41
42
55
12
21
34
39
49
23
18
5
8
50
47
4
63
15
20
57
14
61
1
3
46
62
6
40
59
54
30
56
24
36
32
35
9
25
-1
EOF
